 vasp.5.3.3 18Dez12 (build Apr  3 2013 12:00:03) complex

 INCAR:
 POTCAR:   PAW_PBE Si 05Jan2001
 POTCAR:   PAW_PBE Si 05Jan2001
   VRHFIN =Si: s2p2

   TITEL  = PAW_PBE Si 05Jan2001
   POMASS =   28.085; ZVAL   =    4.000    mass and valenz
   ENMAX  =  245.345; ENMIN  =  184.009 eV
   QCUT   =   -4.246; QGAM   =    8.493    optimization parameters

   Description
     l     E      TYP  RCUT    TYP  RCUT
     0   .000     23  1.900
     0   .000     23  1.900
     1   .000     23  1.900
     1   .000     23  1.900
     2   .000      7  1.900

 PAW_PBE Si 05Jan2001                   :

 POSCAR:  Diamond Structure Silicon
  positions in direct lattice
  velocities in cartesian coordinates
 exchange correlation table for  LEXCH =        8
   RHO(1)=    0.500       N(1)  =     2000
   RHO(2)=  100.500       N(2)  =     4000

 ion  position               nearest neighbor table
   1  0.875  0.875  0.875-   2 2.35   2 2.35   2 2.35   2 2.35
   2  0.125  0.125  0.125-   1 2.35   1 2.35   1 2.35   1 2.35

  LATTYP: Found a face centered cubic cell.
 ALAT       =     5.4300000000

  Lattice vectors:

 A1 = (   0.0000000000,   2.7150000000,   2.7150000000)
 A2 = (   2.7150000000,   0.0000000000,   2.7150000000)
 A3 = (   2.7150000000,   2.7150000000,   0.0000000000)

Analysis of symmetry for initial positions (statically):
 Subroutine PRICEL returns:
 Original cell was already a primitive cell.

 Routine SETGRP: Setting up the symmetry group for a
 face centered cubic supercell.

 Subroutine GETGRP returns: Found 48 space group operations
 (whereof 12 operations were pure point group operations)
 out of a pool of 48 trial point group operations.

The static configuration has the point symmetry D_3d.
 The point group associated with its full space group is O_h .

Analysis of symmetry for dynamics (positions and initial velocities):
 Subroutine PRICEL returns:
 Original cell was already a primitive cell.

 Routine SETGRP: Setting up the symmetry group for a
 face centered cubic supercell.

 Subroutine GETGRP returns: Found 48 space group operations
 (whereof 12 operations were pure point group operations)
 out of a pool of 48 trial point group operations.

The dynamic configuration has the point symmetry D_3d.
 The point group associated with its full space group is O_h .

 irot  :   1
 isymop:   1   0   0
           0   1   0
           0   0   1

 gtrans:     0.0000000     0.0000000     0.0000000

 ptrans:     0.0000000     0.0000000     0.0000000
 rotmap:
 (   1->   1)  (   2->   2)

[...]

 irot  :  48
 isymop:   0  -1   0
           1   1   1
           0   0  -1

 gtrans:     0.0000000     0.5000000     0.0000000

 ptrans:     0.0000000     0.0000000     0.0000000
 rotmap:
 (   1->   2)  (   2->   1)

 KPOINTS: k-points along high symmetry lines
  interpolating k-points between supplied coordinates
  k-points in reciprocal lattice
Space group operators:
 irot       det(A)        alpha          n_x          n_y          n_z        tau_x        tau_y        tau_z
    1     1.000000     0.000001     1.000000     0.000000     0.000000     0.000000     0.000000     0.000000
    2    -1.000000     0.000001     1.000000     0.000000     0.000000     0.000000     0.000000     0.000000
    3     1.000000   120.000000    -0.577350    -0.577350    -0.577350     0.000000     0.000000     0.000000
    4    -1.000000   120.000000    -0.577350    -0.577350    -0.577350     0.000000     0.000000     0.000000
    5     1.000000   120.000000     0.577350     0.577350     0.577350     0.000000     0.000000     0.000000
    6    -1.000000   120.000000     0.577350     0.577350     0.577350     0.000000     0.000000     0.000000
    7     1.000000   180.000000     0.000000    -0.707107     0.707107     0.000000     0.000000     0.000000
    8    -1.000000   180.000000     0.000000    -0.707107     0.707107     0.000000     0.000000     0.000000
    9     1.000000   180.000000     0.707107    -0.707107     0.000000     0.000000     0.000000     0.000000
   10    -1.000000   180.000000     0.707107    -0.707107     0.000000     0.000000     0.000000     0.000000
   11     1.000000   180.000000     0.707107     0.000000    -0.707107     0.000000     0.000000     0.000000
   12    -1.000000   180.000000     0.707107     0.000000    -0.707107     0.000000     0.000000     0.000000
   13     1.000000    90.000000     0.000000     0.000000    -1.000000     0.500000     0.000000     0.000000
   14    -1.000000    90.000000     0.000000     0.000000    -1.000000     0.500000     0.000000     0.000000
   15     1.000000   180.000000     0.000000     0.707107     0.707107     0.500000     0.000000     0.000000
   16    -1.000000   180.000000     0.000000     0.707107     0.707107     0.500000     0.000000     0.000000
   17     1.000000    90.000000     0.000000     1.000000     0.000000     0.500000     0.000000     0.000000
   18    -1.000000    90.000000     0.000000     1.000000     0.000000     0.500000     0.000000     0.000000
   19     1.000000   180.000000     0.000000     0.000000     1.000000     0.000000     0.000000     0.500000
   20    -1.000000   180.000000     0.000000     0.000000     1.000000     0.000000     0.000000     0.500000
   21     1.000000   120.000000    -0.577350     0.577350     0.577350     0.000000     0.000000     0.500000
   22    -1.000000   120.000000    -0.577350     0.577350     0.577350     0.000000     0.000000     0.500000
   23     1.000000   120.000000    -0.577350     0.577350    -0.577350     0.000000     0.000000     0.500000
   24    -1.000000   120.000000    -0.577350     0.577350    -0.577350     0.000000     0.000000     0.500000
   25     1.000000    90.000000     0.000000     0.000000     1.000000     0.000000     0.500000     0.000000
   26    -1.000000    90.000000     0.000000     0.000000     1.000000     0.000000     0.500000     0.000000
   27     1.000000    90.000000    -1.000000     0.000000     0.000000     0.000000     0.500000     0.000000
   28    -1.000000    90.000000    -1.000000     0.000000     0.000000     0.000000     0.500000     0.000000
   29     1.000000   180.000000     0.707107     0.000000     0.707107     0.000000     0.500000     0.000000
   30    -1.000000   180.000000     0.707107     0.000000     0.707107     0.000000     0.500000     0.000000
   31     1.000000   120.000000     0.577350    -0.577350     0.577350     0.500000     0.000000     0.000000
   32    -1.000000   120.000000     0.577350    -0.577350     0.577350     0.500000     0.000000     0.000000
   33     1.000000   120.000000    -0.577350    -0.577350     0.577350     0.500000     0.000000     0.000000
   34    -1.000000   120.000000    -0.577350    -0.577350     0.577350     0.500000     0.000000     0.000000
   35     1.000000   180.000000     1.000000     0.000000     0.000000     0.500000     0.000000     0.000000
   36    -1.000000   180.000000     1.000000     0.000000     0.000000     0.500000     0.000000     0.000000
   37     1.000000    90.000000     0.000000    -1.000000     0.000000     0.000000     0.000000     0.500000
   38    -1.000000    90.000000     0.000000    -1.000000     0.000000     0.000000     0.000000     0.500000
   39     1.000000   180.000000     0.707107     0.707107     0.000000     0.000000     0.000000     0.500000
   40    -1.000000   180.000000     0.707107     0.707107     0.000000     0.000000     0.000000     0.500000
   41     1.000000    90.000000     1.000000     0.000000     0.000000     0.000000     0.000000     0.500000
   42    -1.000000    90.000000     1.000000     0.000000     0.000000     0.000000     0.000000     0.500000
   43     1.000000   120.000000     0.577350    -0.577350    -0.577350     0.000000     0.500000     0.000000
   44    -1.000000   120.000000     0.577350    -0.577350    -0.577350     0.000000     0.500000     0.000000
   45     1.000000   180.000000     0.000000     1.000000     0.000000     0.000000     0.500000     0.000000
   46    -1.000000   180.000000     0.000000     1.000000     0.000000     0.000000     0.500000     0.000000
   47     1.000000   120.000000     0.577350     0.577350    -0.577350     0.000000     0.500000     0.000000
   48    -1.000000   120.000000     0.577350     0.577350    -0.577350     0.000000     0.500000     0.000000

 I would recommend the setting:
   dimension x,y,z NGX =    25 NGY =   25 NGZ =   25
 SYSTEM =  unknown system
 POSCAR =   Diamond Structure Silicon

 Startparameter for this run:
   NWRITE =      2    write-flag & timer
   PREC   = accura    normal or accurate (medium, high low for compatibility)
   ISTART =      1    job   : 0-new  1-cont  2-samecut
   ICHARG =     11    charge: 1-file 2-atom 10-const
   ISPIN  =      1    spin polarized calculation?
   LNONCOLLINEAR =      F non collinear calculations
   LSORBIT =      F    spin-orbit coupling
   INIWAV =      1    electr: 0-lowe 1-rand  2-diag
   LASPH  =      F    aspherical Exc in radial PAW
   METAGGA=      F    non-selfconsistent MetaGGA calc.

 Electronic Relaxation 1
   ENCUT  =  400.0 eV  29.40 Ry    5.42 a.u.   6.26  6.26  6.26*2*pi/ulx,y,z
   ENINI  =  400.0     initial cutoff
   ENAUG  =  322.1 eV  augmentation charge cutoff
   NELM   =     60;   NELMIN=  2; NELMDL=  0     # of ELM steps
   EDIFF  = 0.1E-03   stopping-criterion for ELM
   LREAL  =      F    real-space projection
   NLSPLINE    = F    spline interpolate recip. space projectors
   LCOMPAT=      F    compatible to vasp.4.4
   GGA_COMPAT  = T    GGA compatible to vasp.4.4-vasp.4.6
   LMAXPAW     = -100 max onsite density
   LMAXMIX     =    2 max onsite mixed and CHGCAR
   VOSKOWN=      0    Vosko Wilk Nusair interpolation
   ROPT   =    0.00000
 Ionic relaxation
   EDIFFG = 0.1E-02   stopping-criterion for IOM
   NSW    =    100    number of steps for IOM
   NBLOCK =      1;   KBLOCK =    100    inner block; outer block
   IBRION =      2    ionic relax: 0-MD 1-quasi-New 2-CG
   NFREE  =      1    steps in history (QN), initial steepest desc. (CG)
   ISIF   =      5    stress and relaxation
   IWAVPR =     11    prediction:  0-non 1-charg 2-wave 3-comb
   ISYM   =      2    0-nonsym 1-usesym 2-fastsym
   LCORR  =      T    Harris-Foulkes like correction to forces

   POTIM  = 0.5000    time-step for ionic-motion
   TEIN   =    0.0    initial temperature
   TEBEG  =    0.0;   TEEND  =   0.0 temperature during run
   SMASS  =  -3.00    Nose mass-parameter (am)
   estimated Nose-frequenzy (Omega)   =  0.10E-29 period in steps =****** mass=  -0.337E-27a.u.
   SCALEE = 1.0000    scale energy and forces
   NPACO  =    256;   APACO  = 16.0  distance and # of slots for P.C.
   PSTRESS=    0.0 pullay stress

  Mass of Ions in am
   POMASS =  28.09
  Ionic Valenz
   ZVAL   =   4.00
  Atomic Wigner-Seitz radii
  virtual crystal weights
   VCA    =   1.00
   NELECT =       8.0000    total number of electrons
   NUPDOWN=      -1.0000    fix difference up-down

 DOS related values:
   EMIN   =  10.00;   EMAX   =-10.00  energy-range for DOS
   EFERMI =   0.00
   ISMEAR =    -1;   SIGMA  =   0.00  broadening in eV -4-tet -1-fermi 0-gaus

 Electronic relaxation 2 (details)
   IALGO  =     38    algorithm
[...]
 k-point 35 :   0.3469 0.3469 0.0000  plane waves:     717
 k-point 36 :   0.3571 0.3571 0.0000  plane waves:     717
 k-point 37 :   0.3673 0.3673 0.0000  plane waves:     725
 k-point 38 :   0.3776 0.3776 0.0000  plane waves:     725
 k-point 39 :   0.3878 0.3878 0.0000  plane waves:     729
 k-point 40 :   0.3980 0.3980 0.0000  plane waves:     729
 k-point 41 :   0.4082 0.4082 0.0000  plane waves:     725
 k-point 42 :   0.4184 0.4184 0.0000  plane waves:     725
 k-point 43 :   0.4286 0.4286 0.0000  plane waves:     724
 k-point 44 :   0.4388 0.4388 0.0000  plane waves:     732
 k-point 45 :   0.4490 0.4490 0.0000  plane waves:     732
 k-point 46 :   0.4592 0.4592 0.0000  plane waves:     740
 k-point 47 :   0.4694 0.4694 0.0000  plane waves:     740
 k-point 48 :   0.4796 0.4796 0.0000  plane waves:     740
 k-point 49 :   0.4898 0.4898 0.0000  plane waves:     740
 k-point 50 :   0.5000 0.5000 0.0000  plane waves:     740
 k-point 51 :   0.5000 0.5000 0.0000  plane waves:     740
 k-point 52 :   0.5000 0.5051 0.0051  plane waves:     740
 k-point 53 :   0.5000 0.5102 0.0102  plane waves:     740
 k-point 54 :   0.5000 0.5153 0.0153  plane waves:     736
 k-point 55 :   0.5000 0.5204 0.0204  plane waves:     736
 k-point 56 :   0.5000 0.5255 0.0255  plane waves:     732
 k-point 57 :   0.5000 0.5306 0.0306  plane waves:     732
 k-point 58 :   0.5000 0.5357 0.0357  plane waves:     732
 k-point 59 :   0.5000 0.5408 0.0408  plane waves:     732
 k-point 60 :   0.5000 0.5459 0.0459  plane waves:     728
[...]
 k-point 85 :   0.5000 0.6735 0.1735  plane waves:     726
 k-point 86 :   0.5000 0.6786 0.1786  plane waves:     726
 k-point 87 :   0.5000 0.6837 0.1837  plane waves:     726
 k-point 88 :   0.5000 0.6888 0.1888  plane waves:     726
 k-point 89 :   0.5000 0.6939 0.1939  plane waves:     726
 k-point 90 :   0.5000 0.6990 0.1990  plane waves:     726
 k-point 91 :   0.5000 0.7041 0.2041  plane waves:     726
 k-point 92 :   0.5000 0.7092 0.2092  plane waves:     726
 k-point 93 :   0.5000 0.7143 0.2143  plane waves:     724
 k-point 94 :   0.5000 0.7194 0.2194  plane waves:     724
 k-point 95 :   0.5000 0.7245 0.2245  plane waves:     724
 k-point 96 :   0.5000 0.7296 0.2296  plane waves:     724
 k-point 97 :   0.5000 0.7347 0.2347  plane waves:     724
 k-point 98 :   0.5000 0.7398 0.2398  plane waves:     724
 k-point 99 :   0.5000 0.7449 0.2449  plane waves:     724
 k-point ** :   0.5000 0.7500 0.2500  plane waves:     724
 k-point ** :   0.5000 0.7500 0.2500  plane waves:     724
 k-point ** :   0.5000 0.7449 0.2551  plane waves:     724
 k-point ** :   0.5000 0.7398 0.2602  plane waves:     724
 k-point ** :   0.5000 0.7347 0.2653  plane waves:     724
 k-point ** :   0.5000 0.7296 0.2704  plane waves:     726
 k-point ** :   0.5000 0.7245 0.2755  plane waves:     726
 k-point ** :   0.5000 0.7194 0.2806  plane waves:     728
 k-point ** :   0.5000 0.7143 0.2857  plane waves:     726
 k-point ** :   0.5000 0.7092 0.2908  plane waves:     726
 k-point ** :   0.5000 0.7041 0.2959  plane waves:     728
 k-point ** :   0.5000 0.6990 0.3010  plane waves:     728
 k-point ** :   0.5000 0.6939 0.3061  plane waves:     728
 k-point ** :   0.5000 0.6888 0.3112  plane waves:     728
 k-point ** :   0.5000 0.6837 0.3163  plane waves:     730
 k-point ** :   0.5000 0.6786 0.3214  plane waves:     728
 k-point ** :   0.5000 0.6735 0.3265  plane waves:     728
 k-point ** :   0.5000 0.6684 0.3316  plane waves:     730
 k-point ** :   0.5000 0.6633 0.3367  plane waves:     728
 k-point ** :   0.5000 0.6582 0.3418  plane waves:     724
 k-point ** :   0.5000 0.6531 0.3469  plane waves:     724
 k-point ** :   0.5000 0.6480 0.3520  plane waves:     724
 k-point ** :   0.5000 0.6429 0.3571  plane waves:     726
 k-point ** :   0.5000 0.6378 0.3622  plane waves:     726
 k-point ** :   0.5000 0.6327 0.3673  plane waves:     722
 k-point ** :   0.5000 0.6276 0.3724  plane waves:     722
 k-point ** :   0.5000 0.6224 0.3776  plane waves:     722
 k-point ** :   0.5000 0.6173 0.3827  plane waves:     722
 k-point ** :   0.5000 0.6122 0.3878  plane waves:     724
 k-point ** :   0.5000 0.6071 0.3929  plane waves:     728
 k-point ** :   0.5000 0.6020 0.3980  plane waves:     728
 k-point ** :   0.5000 0.5969 0.4031  plane waves:     728
 k-point ** :   0.5000 0.5918 0.4082  plane waves:     728
 k-point ** :   0.5000 0.5867 0.4133  plane waves:     732
 k-point ** :   0.5000 0.5816 0.4184  plane waves:     732
 k-point ** :   0.5000 0.5765 0.4235  plane waves:     732
 k-point ** :   0.5000 0.5714 0.4286  plane waves:     734
 k-point ** :   0.5000 0.5663 0.4337  plane waves:     734
 k-point ** :   0.5000 0.5612 0.4388  plane waves:     734
 k-point ** :   0.5000 0.5561 0.4439  plane waves:     730
 k-point ** :   0.5000 0.5510 0.4490  plane waves:     732
 k-point ** :   0.5000 0.5459 0.4541  plane waves:     732
 k-point ** :   0.5000 0.5408 0.4592  plane waves:     732
 k-point ** :   0.5000 0.5357 0.4643  plane waves:     732
 k-point ** :   0.5000 0.5306 0.4694  plane waves:     734
 k-point ** :   0.5000 0.5255 0.4745  plane waves:     734
 k-point ** :   0.5000 0.5204 0.4796  plane waves:     732
 k-point ** :   0.5000 0.5153 0.4847  plane waves:     732
 k-point ** :   0.5000 0.5102 0.4898  plane waves:     722
 k-point ** :   0.5000 0.5051 0.4949  plane waves:     718
 k-point ** :   0.5000 0.5000 0.5000  plane waves:     718
 k-point ** :   0.5000 0.5000 0.5000  plane waves:     718
 k-point ** :   0.4898 0.4898 0.4898  plane waves:     718
 k-point ** :   0.4796 0.4796 0.4796  plane waves:     724
 k-point ** :   0.4694 0.4694 0.4694  plane waves:     724
 k-point ** :   0.4592 0.4592 0.4592  plane waves:     730
 k-point ** :   0.4490 0.4490 0.4490  plane waves:     736
 k-point ** :   0.4388 0.4388 0.4388  plane waves:     736
 k-point ** :   0.4286 0.4286 0.4286  plane waves:     736
 k-point ** :   0.4184 0.4184 0.4184  plane waves:     739
[...]
 k-point ** :   0.2679 0.5357 0.2679  plane waves:     728
 k-point ** :   0.2755 0.5510 0.2755  plane waves:     728
 k-point ** :   0.2832 0.5663 0.2832  plane waves:     728
 k-point ** :   0.2908 0.5816 0.2908  plane waves:     728
 k-point ** :   0.2985 0.5969 0.2985  plane waves:     728
 k-point ** :   0.3061 0.6122 0.3061  plane waves:     722
 k-point ** :   0.3138 0.6276 0.3138  plane waves:     722
 k-point ** :   0.3214 0.6429 0.3214  plane waves:     722
 k-point ** :   0.3291 0.6582 0.3291  plane waves:     718
 k-point ** :   0.3367 0.6735 0.3367  plane waves:     718
 k-point ** :   0.3444 0.6888 0.3444  plane waves:     720
 k-point ** :   0.3520 0.7041 0.3520  plane waves:     724
 k-point ** :   0.3597 0.7194 0.3597  plane waves:     724
 k-point ** :   0.3673 0.7347 0.3673  plane waves:     724
 k-point ** :   0.3750 0.7500 0.3750  plane waves:     724

 maximum number of plane-waves:       748
 maximum index in each direction:
   IXMAX=    6   IYMAX=    6   IZMAX=    6
   IXMIN=   -6   IYMIN=   -6   IZMIN=   -6

 NGX is ok and might be reduce to  26
 NGY is ok and might be reduce to  26
 NGZ is ok and might be reduce to  26

 initial charge density was supplied:
 number of electron       8.0000001 magnetization
 keeping initial charge density in first step

 Maximum index for augmentation-charges        17861 (set IRDMAX)

 First call to EWALD:  gamma=   0.518
 Maximum number of real-space cells 3x 3x 3
 Maximum number of reciprocal cells 3x 3x 3

----------------------------------------- Iteration    1(   1)  ---------------------------------------

 eigenvalue-minimisations  : 16152
 total energy-change (2. order) :-0.6844521E+01  (-0.1252224E+02)
 number of electron       8.0000001 magnetization
 augmentation part        8.0000001 magnetization

 Free energy of the ion-electron system (eV)
  alpha Z        PSCENC =         3.36414203
  Ewald energy   TEWEN  =      -228.56352493
  -1/2 Hartree   DENC   =       -14.91803666
  -exchange  EXHF       =         0.00000000
  -V(xc)+E(xc)   XCENC  =       -17.96141178
  PAW double counting   =        74.32020755      -39.35852389
  entropy T*S    EENTRO =        -0.00000079
  eigenvalues    EBANDS =        10.14113500
  atomic energy  EATOM  =       206.13149246
  free energy    TOTEN  =        -6.84452102 eV

  energy without entropy =       -6.84452023  energy(sigma->0) =       -6.84452063

[...]

----------------------------------------- Iteration    1(   4)  ---------------------------------------

 eigenvalue-minimisations  : 12100
 total energy-change (2. order) :-0.3599015E-04  (-0.3598937E-04)
 number of electron       8.0000001 magnetization
 augmentation part        8.0000001 magnetization

 Free energy of the ion-electron system (eV)
  alpha Z        PSCENC =         3.36414203
  Ewald energy   TEWEN  =      -228.56352493
  -1/2 Hartree   DENC   =       -14.91803666
  -exchange  EXHF       =         0.00000000
  -V(xc)+E(xc)   XCENC  =       -17.96141178
  PAW double counting   =        74.32020755      -39.35852389
  entropy T*S    EENTRO =         0.00000000
  eigenvalues    EBANDS =         8.67436206
  atomic energy  EATOM  =       206.13149246
  free energy    TOTEN  =        -8.31129317 eV

  energy without entropy =       -8.31129317  energy(sigma->0) =       -8.31129317

 average (electrostatic) potential at core
  the test charge radii are     0.9892
  (the norm of the test charge is              1.0000)
       1 -83.2427       2 -83.2427

 E-fermi :   5.8743     XC(G=0):  -9.4111     alpha+bet :-11.9845

 k-point   1 :       0.0000    0.0000    0.0000
  band No.  band energies     occupation
      1      -6.1303      2.00000
      2       5.8300      2.00000
      3       5.8300      2.00000
      4       5.8300      2.00000
      5       8.3961      0.00000
      6       8.3961      0.00000
      7       8.3961      0.00000
      8       9.2080      0.00000
      9      13.5524      0.00000
     10      13.5524      0.00000
     11      13.7898      0.00000
     12      17.0849      0.00000
     13      17.0849      0.00000
     14      17.0849      0.00000
     15      21.2361      0.00000
     16      28.9463      0.00000
     17      28.9463      0.00000
     18      28.9463      0.00000
     19      30.0537      0.00000
     20      30.0537      0.00000

[...]

 k-point 250 :       0.3750    0.7500    0.3750
  band No.  band energies     occupation
      1      -2.3982      2.00000
      2      -1.3943      2.00000
      3       1.5298      2.00000
      4       3.4069      2.00000
      5       7.0344      0.00000
      6       9.9593      0.00000
      7      13.3040      0.00000
      8      13.8454      0.00000
      9      14.0737      0.00000
     10      14.3391      0.00000
     11      20.5836      0.00000
     12      20.7228      0.00000
     13      21.3113      0.00000
     14      21.5254      0.00000
     15      21.7381      0.00000
     16      22.9174      0.00000
     17      25.4801      0.00000
     18      25.7974      0.00000
     19      27.3509      0.00000
     20      27.4843      0.00000

 soft charge-density along one line, spin component           1
         0         1         2         3         4         5         6         7         8         9
x     0.0000    0.0000    0.0000    0.0000    0.0000    0.0000    0.0000    0.0000    0.0000    0.0000
x     0.0000    0.0000    0.0000    0.0000    0.0000    0.0000    0.0000    0.0000    0.0000    0.0000
x     0.0000    0.0000    0.0000    0.0000    0.0000    0.0000    0.0000    0.0000    0.0000    0.0000
y     0.0000    0.0000    0.0000    0.0000    0.0000    0.0000    0.0000    0.0000    0.0000    0.0000
y     0.0000    0.0000    0.0000    0.0000    0.0000    0.0000    0.0000    0.0000    0.0000    0.0000
y     0.0000    0.0000    0.0000    0.0000    0.0000    0.0000    0.0000    0.0000    0.0000    0.0000
z     0.0000    0.0000    0.0000    0.0000    0.0000    0.0000    0.0000    0.0000    0.0000    0.0000
z     0.0000    0.0000    0.0000    0.0000    0.0000    0.0000    0.0000    0.0000    0.0000    0.0000
z     0.0000    0.0000    0.0000    0.0000    0.0000    0.0000    0.0000    0.0000    0.0000    0.0000
 total charge-density along one line
x     8.0000    0.0000    1.7630    0.0000    0.3544    0.0000    0.1553    0.0000    0.0218   -0.0000
x    -0.0043   -0.0000   -0.0006   -0.0000   -0.0004   -0.0000    0.0000    0.0000    0.0001    0.0000
x     0.0000   -0.0000    0.0000    0.0000   -0.0000    0.0000    0.0000   -0.0000    0.0000   -0.0000
x     0.0000    0.0000   -0.0000   -0.0000   -0.0000   -0.0000   -0.0000    0.0000   -0.0000   -0.0000
x     0.0000   -0.0000   -0.0000    0.0000   -0.0000    0.0000   -0.0000    0.0000    0.0000    0.0000
x     0.0000   -0.0000    0.0000   -0.0000    0.0000   -0.0000   -0.0000    0.0000
y     8.0000    0.0000    1.7630    0.0000    0.3544   -0.0000    0.1553   -0.0000    0.0218    0.0000
y    -0.0043   -0.0000   -0.0006   -0.0000   -0.0004    0.0000    0.0000   -0.0000    0.0001   -0.0000
y     0.0000    0.0000    0.0000   -0.0000   -0.0000   -0.0000    0.0000    0.0000    0.0000   -0.0000
y     0.0000   -0.0000   -0.0000    0.0000   -0.0000    0.0000   -0.0000   -0.0000   -0.0000    0.0000
y     0.0000    0.0000   -0.0000   -0.0000   -0.0000    0.0000   -0.0000    0.0000    0.0000   -0.0000
y     0.0000    0.0000    0.0000    0.0000    0.0000   -0.0000   -0.0000    0.0000
z     8.0000    0.0000    1.7630    0.0000    0.3544   -0.0000    0.1553   -0.0000    0.0218    0.0000
z    -0.0043   -0.0000   -0.0006   -0.0000   -0.0004    0.0000    0.0000   -0.0000    0.0001   -0.0000
z     0.0000    0.0000    0.0000   -0.0000   -0.0000   -0.0000    0.0000    0.0000    0.0000    0.0000
z     0.0000   -0.0000   -0.0000    0.0000   -0.0000    0.0000   -0.0000   -0.0000   -0.0000    0.0000
z     0.0000    0.0000   -0.0000   -0.0000   -0.0000    0.0000   -0.0000    0.0000    0.0000   -0.0000
z     0.0000    0.0000    0.0000    0.0000    0.0000   -0.0000   -0.0000   -0.0000

------------------------ aborting loop because EDIFF is reached ----------------------------------------

  FORCE on cell =-STRESS in cart. coord.  units (eV):
  Direction    XX          YY          ZZ          XY          YZ          ZX
  Alpha Z     3.36414     3.36414     3.36414
  Ewald     -76.18788   -76.18788   -76.18788    -0.00000    -0.00000     0.00000
  Hartree     5.47959     5.47959     5.47959     0.00000     0.00000     0.00000
  E(xc)     -25.41278   -25.41278   -25.41278     0.00000     0.00000     0.00000
  Local     -30.27700   -30.27700   -30.27700     0.00001     0.00001     0.00001
  n-local    78.84773    77.10781    74.66754    -1.09602    -0.83892    -1.95679
  augment   -11.18986   -11.18986   -11.18986    -0.00001    -0.00001    -0.00001
  Kinetic    60.18104    61.76213    58.56080    -1.44962    -1.31016    -1.74416
  Fock        0.00000     0.00000     0.00000     0.00000     0.00000     0.00000
  Total       2.81857     2.81857     2.81857     0.00000    -0.00000     0.00000
  in kB     112.82344   112.82344   112.82344     0.00000    -0.00000     0.00000

 VOLUME and BASIS-vectors are now :
  energy-cutoff  :      400.00
  volume of cell :       40.03
      direct lattice vectors                 reciprocal lattice vectors
     0.000000000  2.715000000  2.715000000    -0.184162063  0.184162063  0.184162063
     2.715000000  0.000000000  2.715000000     0.184162063 -0.184162063  0.184162063
     2.715000000  2.715000000  0.000000000     0.184162063  0.184162063 -0.184162063

  length of vectors
     3.839589822  3.839589822  3.839589822     0.318978049  0.318978049  0.318978049

 FORCES acting on ions
    electron-ion (+dipol)            ewald-force                    non-local-force                 convergence-correction
   0.489E-08 0.826E-08 0.826E-08   0.154E-14 -.440E-14 -.300E-14   0.451E-16 0.208E-15 0.111E-15   -.336E-08 -.336E-08 -.336E-08
   -.489E-08 -.826E-08 -.826E-08   -.135E-14 0.482E-14 0.312E-14   -.451E-16 -.555E-16 -.694E-17   0.336E-08 0.336E-08 0.336E-08
   -.132E-13 -.243E-13 -.214E-13   0.187E-15 0.422E-15 0.120E-15   0.000E+00 0.153E-15 0.104E-15   -.470E-13 -.370E-13 -.373E-13

 POSITION                                       TOTAL-FORCE (eV/Angst)
      4.75125      4.75125      4.75125         0.000000     -0.000000      0.000000
      0.67875      0.67875      0.67875        -0.000000      0.000000     -0.000000
    total drift:                               -0.000000     -0.000000     -0.000000

  FREE ENERGIE OF THE ION-ELECTRON SYSTEM (eV)
  free  energy   TOTEN  =        -8.31129317 eV

  energy  without entropy=       -8.31129317  energy(sigma->0) =       -8.31129317

 reached required accuracy - stopping structural energy minimisation
 writing wavefunctions