 vasp.5.3.3 18Dez12 (build Apr  3 2013 12:00:03) complex

 INCAR:
 POTCAR:   PAW_PBE Al 04Jan2001
 POTCAR:   PAW_PBE Al 04Jan2001
   VRHFIN =Al: s2p1

   TITEL  = PAW_PBE Al 04Jan2001
   POMASS =   26.982; ZVAL   =    3.000    mass and valenz
   ENMAX  =  240.300; ENMIN  =  180.225 eV
   QCUT   =   -4.203; QGAM   =    8.405    optimization parameters

   Description
     l     E      TYP  RCUT    TYP  RCUT
     0   .000     23  1.900
     0   .000     23  1.900
     1   .000     23  1.900
     1  1.000     23  1.900
     2   .000      7  1.900

 PAW_PBE Al 04Jan2001                   :

 POSCAR:  Aluminum
  positions in direct lattice
 exchange correlation table for  LEXCH =        8
   RHO(1)=    0.500       N(1)  =     2000
   RHO(2)=  100.500       N(2)  =     4000

 ion  position               nearest neighbor table
   1  0.000  0.000  0.000-

  LATTYP: Found a face centered cubic cell.
 ALAT       =     4.0500000000

  Lattice vectors:

 A1 = (   0.0000000000,   2.0250000000,   2.0250000000)
 A2 = (   2.0250000000,   0.0000000000,   2.0250000000)
 A3 = (   2.0250000000,   2.0250000000,   0.0000000000)

Analysis of symmetry for initial positions (statically):
 Subroutine PRICEL returns:
 Original cell was already a primitive cell.

 Routine SETGRP: Setting up the symmetry group for a
 face centered cubic supercell.

 Subroutine GETGRP returns: Found 48 space group operations
 (whereof 48 operations were pure point group operations)
 out of a pool of 48 trial point group operations.

The static configuration has the point symmetry O_h .

Analysis of symmetry for dynamics (positions and initial velocities):
 Subroutine PRICEL returns:
 Original cell was already a primitive cell.

 Routine SETGRP: Setting up the symmetry group for a
 face centered cubic supercell.

 Subroutine GETGRP returns: Found 48 space group operations
 (whereof 48 operations were pure point group operations)
 out of a pool of 48 trial point group operations.

The dynamic configuration has the point symmetry O_h .

 irot  :   1
 isymop:   1   0   0
           0   1   0
           0   0   1

 gtrans:     0.0000000     0.0000000     0.0000000

 ptrans:     0.0000000     0.0000000     0.0000000
 rotmap:
 (   1->   1)

[...]

 irot  :  48
 isymop:   0   0   1
           0   1   0
           1   0   0

 gtrans:     0.0000000     0.0000000     0.0000000

 ptrans:     0.0000000     0.0000000     0.0000000
 rotmap:
 (   1->   1)

 KPOINTS: k-points along high symmetry lines
  interpolating k-points between supplied coordinates
  k-points in reciprocal lattice
Space group operators:
 irot       det(A)        alpha          n_x          n_y          n_z        tau_x        tau_y        tau_z
    1     1.000000     0.000001     1.000000     0.000000     0.000000     0.000000     0.000000     0.000000
    2    -1.000000     0.000001     1.000000     0.000000     0.000000     0.000000     0.000000     0.000000
    3     1.000000   120.000000    -0.577350    -0.577350    -0.577350     0.000000     0.000000     0.000000
    4    -1.000000   120.000000    -0.577350    -0.577350    -0.577350     0.000000     0.000000     0.000000
    5     1.000000   120.000000     0.577350     0.577350     0.577350     0.000000     0.000000     0.000000
    6    -1.000000   120.000000     0.577350     0.577350     0.577350     0.000000     0.000000     0.000000
    7     1.000000    90.000000     0.000000     0.000000    -1.000000     0.000000     0.000000     0.000000
    8    -1.000000    90.000000     0.000000     0.000000    -1.000000     0.000000     0.000000     0.000000
    9     1.000000   180.000000     0.000000     0.707107     0.707107     0.000000     0.000000     0.000000
   10    -1.000000   180.000000     0.000000     0.707107     0.707107     0.000000     0.000000     0.000000
   11     1.000000    90.000000     0.000000     1.000000     0.000000     0.000000     0.000000     0.000000
   12    -1.000000    90.000000     0.000000     1.000000     0.000000     0.000000     0.000000     0.000000
   13     1.000000   180.000000     0.000000     0.000000     1.000000     0.000000     0.000000     0.000000
   14    -1.000000   180.000000     0.000000     0.000000     1.000000     0.000000     0.000000     0.000000
   15     1.000000   120.000000    -0.577350     0.577350     0.577350     0.000000     0.000000     0.000000
   16    -1.000000   120.000000    -0.577350     0.577350     0.577350     0.000000     0.000000     0.000000
   17     1.000000   120.000000    -0.577350     0.577350    -0.577350     0.000000     0.000000     0.000000
   18    -1.000000   120.000000    -0.577350     0.577350    -0.577350     0.000000     0.000000     0.000000
   19     1.000000    90.000000     0.000000     0.000000     1.000000     0.000000     0.000000     0.000000
   20    -1.000000    90.000000     0.000000     0.000000     1.000000     0.000000     0.000000     0.000000
   21     1.000000    90.000000    -1.000000     0.000000     0.000000     0.000000     0.000000     0.000000
   22    -1.000000    90.000000    -1.000000     0.000000     0.000000     0.000000     0.000000     0.000000
   23     1.000000   180.000000     0.707107     0.000000     0.707107     0.000000     0.000000     0.000000
   24    -1.000000   180.000000     0.707107     0.000000     0.707107     0.000000     0.000000     0.000000
   25     1.000000   120.000000     0.577350    -0.577350     0.577350     0.000000     0.000000     0.000000
   26    -1.000000   120.000000     0.577350    -0.577350     0.577350     0.000000     0.000000     0.000000
   27     1.000000   120.000000    -0.577350    -0.577350     0.577350     0.000000     0.000000     0.000000
   28    -1.000000   120.000000    -0.577350    -0.577350     0.577350     0.000000     0.000000     0.000000
   29     1.000000   180.000000     1.000000     0.000000     0.000000     0.000000     0.000000     0.000000
   30    -1.000000   180.000000     1.000000     0.000000     0.000000     0.000000     0.000000     0.000000
   31     1.000000    90.000000     0.000000    -1.000000     0.000000     0.000000     0.000000     0.000000
   32    -1.000000    90.000000     0.000000    -1.000000     0.000000     0.000000     0.000000     0.000000
   33     1.000000   180.000000     0.707107     0.707107     0.000000     0.000000     0.000000     0.000000
   34    -1.000000   180.000000     0.707107     0.707107     0.000000     0.000000     0.000000     0.000000
   35     1.000000    90.000000     1.000000     0.000000     0.000000     0.000000     0.000000     0.000000
   36    -1.000000    90.000000     1.000000     0.000000     0.000000     0.000000     0.000000     0.000000
   37     1.000000   120.000000     0.577350    -0.577350    -0.577350     0.000000     0.000000     0.000000
   38    -1.000000   120.000000     0.577350    -0.577350    -0.577350     0.000000     0.000000     0.000000
   39     1.000000   180.000000     0.000000     1.000000     0.000000     0.000000     0.000000     0.000000
   40    -1.000000   180.000000     0.000000     1.000000     0.000000     0.000000     0.000000     0.000000
   41     1.000000   120.000000     0.577350     0.577350    -0.577350     0.000000     0.000000     0.000000
   42    -1.000000   120.000000     0.577350     0.577350    -0.577350     0.000000     0.000000     0.000000
   43     1.000000   180.000000     0.000000    -0.707107     0.707107     0.000000     0.000000     0.000000
   44    -1.000000   180.000000     0.000000    -0.707107     0.707107     0.000000     0.000000     0.000000
   45     1.000000   180.000000     0.707107    -0.707107     0.000000     0.000000     0.000000     0.000000
   46    -1.000000   180.000000     0.707107    -0.707107     0.000000     0.000000     0.000000     0.000000
   47     1.000000   180.000000     0.707107     0.000000    -0.707107     0.000000     0.000000     0.000000
   48    -1.000000   180.000000     0.707107     0.000000    -0.707107     0.000000     0.000000     0.000000

 I would recommend the setting:
   dimension x,y,z NGX =    19 NGY =   19 NGZ =   19
 SYSTEM =  unknown system
 POSCAR =   Aluminum

 Startparameter for this run:
   NWRITE =      2    write-flag & timer
   PREC   = accura    normal or accurate (medium, high low for compatibility)
   ISTART =      1    job   : 0-new  1-cont  2-samecut
   ICHARG =     11    charge: 1-file 2-atom 10-const
   ISPIN  =      1    spin polarized calculation?
   LNONCOLLINEAR =      F non collinear calculations
   LSORBIT =      F    spin-orbit coupling
   INIWAV =      1    electr: 0-lowe 1-rand  2-diag
   LASPH  =      F    aspherical Exc in radial PAW
   METAGGA=      F    non-selfconsistent MetaGGA calc.

 Electronic Relaxation 1
   ENCUT  =  400.0 eV  29.40 Ry    5.42 a.u.   4.67  4.67  4.67*2*pi/ulx,y,z
   ENINI  =  400.0     initial cutoff
   ENAUG  =  291.1 eV  augmentation charge cutoff
   NELM   =     60;   NELMIN=  2; NELMDL=  0     # of ELM steps
   EDIFF  = 0.1E-03   stopping-criterion for ELM
   LREAL  =      F    real-space projection
   NLSPLINE    = F    spline interpolate recip. space projectors
   LCOMPAT=      F    compatible to vasp.4.4
   GGA_COMPAT  = T    GGA compatible to vasp.4.4-vasp.4.6
   LMAXPAW     = -100 max onsite density
   LMAXMIX     =    2 max onsite mixed and CHGCAR
   VOSKOWN=      0    Vosko Wilk Nusair interpolation
   ROPT   =    0.00000
 Ionic relaxation
   EDIFFG = 0.1E-02   stopping-criterion for IOM
   NSW    =    100    number of steps for IOM
   NBLOCK =      1;   KBLOCK =    100    inner block; outer block
   IBRION =      2    ionic relax: 0-MD 1-quasi-New 2-CG
   NFREE  =      1    steps in history (QN), initial steepest desc. (CG)
   ISIF   =      5    stress and relaxation
   IWAVPR =     11    prediction:  0-non 1-charg 2-wave 3-comb
   ISYM   =      2    0-nonsym 1-usesym 2-fastsym
   LCORR  =      T    Harris-Foulkes like correction to forces

   POTIM  = 0.5000    time-step for ionic-motion
   TEIN   =    0.0    initial temperature
   TEBEG  =    0.0;   TEEND  =   0.0 temperature during run
   SMASS  =  -3.00    Nose mass-parameter (am)
   estimated Nose-frequenzy (Omega)   =  0.10E-29 period in steps =****** mass=  -0.187E-27a.u.
   SCALEE = 1.0000    scale energy and forces
   NPACO  =    256;   APACO  = 16.0  distance and # of slots for P.C.
   PSTRESS=    0.0 pullay stress

  Mass of Ions in am
   POMASS =  26.98
  Ionic Valenz
   ZVAL   =   3.00
  Atomic Wigner-Seitz radii
  virtual crystal weights
   VCA    =   1.00
   NELECT =       3.0000    total number of electrons
   NUPDOWN=      -1.0000    fix difference up-down

 DOS related values:
   EMIN   =  10.00;   EMAX   =-10.00  energy-range for DOS
   EFERMI =   0.00
   ISMEAR =    -1;   SIGMA  =   0.00  broadening in eV -4-tet -1-fermi 0-gaus

 Electronic relaxation 2 (details)
   IALGO  =     38    algorithm
   LDIAG  =      T    sub-space diagonalisation (order eigenvalues)
   LSUBROT=      T    optimize rotation matrix (better conditioning)
   TURBO    =      0    0=normal 1=particle mesh
   IRESTART =      0    0=no restart 2=restart with 2 vectors
   NREBOOT  =      0    no. of reboots
   NMIN     =      0    reboot dimension
[...]
 k-point 19 :   0.1837 0.1837 0.0000  plane waves:     303
 k-point 20 :   0.1939 0.1939 0.0000  plane waves:     303
 k-point 21 :   0.2041 0.2041 0.0000  plane waves:     303
 k-point 22 :   0.2143 0.2143 0.0000  plane waves:     303
 k-point 23 :   0.2245 0.2245 0.0000  plane waves:     303
 k-point 24 :   0.2347 0.2347 0.0000  plane waves:     303
 k-point 25 :   0.2449 0.2449 0.0000  plane waves:     303
 k-point 26 :   0.2551 0.2551 0.0000  plane waves:     303
 k-point 27 :   0.2653 0.2653 0.0000  plane waves:     303
 k-point 28 :   0.2755 0.2755 0.0000  plane waves:     307
 k-point 29 :   0.2857 0.2857 0.0000  plane waves:     307
 k-point 30 :   0.2959 0.2959 0.0000  plane waves:     311
 k-point 31 :   0.3061 0.3061 0.0000  plane waves:     310
 k-point 32 :   0.3163 0.3163 0.0000  plane waves:     310
 k-point 33 :   0.3265 0.3265 0.0000  plane waves:     310
 k-point 34 :   0.3367 0.3367 0.0000  plane waves:     310
 k-point 35 :   0.3469 0.3469 0.0000  plane waves:     310
 k-point 36 :   0.3571 0.3571 0.0000  plane waves:     310
 k-point 37 :   0.3673 0.3673 0.0000  plane waves:     310
 k-point 38 :   0.3776 0.3776 0.0000  plane waves:     314
 k-point 39 :   0.3878 0.3878 0.0000  plane waves:     310
 k-point 40 :   0.3980 0.3980 0.0000  plane waves:     310
 k-point 41 :   0.4082 0.4082 0.0000  plane waves:     310
 k-point 42 :   0.4184 0.4184 0.0000  plane waves:     310
 k-point 43 :   0.4286 0.4286 0.0000  plane waves:     310
 k-point 44 :   0.4388 0.4388 0.0000  plane waves:     302
 k-point 45 :   0.4490 0.4490 0.0000  plane waves:     302
 k-point 46 :   0.4592 0.4592 0.0000  plane waves:     302
 k-point 47 :   0.4694 0.4694 0.0000  plane waves:     302
 k-point 48 :   0.4796 0.4796 0.0000  plane waves:     302
 k-point 49 :   0.4898 0.4898 0.0000  plane waves:     302
 k-point 50 :   0.5000 0.5000 0.0000  plane waves:     302
 k-point 51 :   0.5000 0.5000 0.0000  plane waves:     302
 k-point 52 :   0.5000 0.5051 0.0051  plane waves:     302
 k-point 53 :   0.5000 0.5102 0.0102  plane waves:     302
 k-point 54 :   0.5000 0.5153 0.0153  plane waves:     302
 k-point 55 :   0.5000 0.5204 0.0204  plane waves:     302
 k-point 56 :   0.5000 0.5255 0.0255  plane waves:     302
 k-point 57 :   0.5000 0.5306 0.0306  plane waves:     302
 k-point 58 :   0.5000 0.5357 0.0357  plane waves:     302
 k-point 59 :   0.5000 0.5408 0.0408  plane waves:     302
 k-point 60 :   0.5000 0.5459 0.0459  plane waves:     302
[...]
 k-point 85 :   0.5000 0.6735 0.1735  plane waves:     294
 k-point 86 :   0.5000 0.6786 0.1786  plane waves:     294
 k-point 87 :   0.5000 0.6837 0.1837  plane waves:     294
 k-point 88 :   0.5000 0.6888 0.1888  plane waves:     294
 k-point 89 :   0.5000 0.6939 0.1939  plane waves:     298
 k-point 90 :   0.5000 0.6990 0.1990  plane waves:     298
 k-point 91 :   0.5000 0.7041 0.2041  plane waves:     298
 k-point 92 :   0.5000 0.7092 0.2092  plane waves:     298
 k-point 93 :   0.5000 0.7143 0.2143  plane waves:     302
 k-point 94 :   0.5000 0.7194 0.2194  plane waves:     302
 k-point 95 :   0.5000 0.7245 0.2245  plane waves:     302
 k-point 96 :   0.5000 0.7296 0.2296  plane waves:     302
 k-point 97 :   0.5000 0.7347 0.2347  plane waves:     306
 k-point 98 :   0.5000 0.7398 0.2398  plane waves:     308
 k-point 99 :   0.5000 0.7449 0.2449  plane waves:     308
 k-point ** :   0.5000 0.7500 0.2500  plane waves:     308
 k-point ** :   0.5000 0.7500 0.2500  plane waves:     308
 k-point ** :   0.5000 0.7449 0.2551  plane waves:     308
 k-point ** :   0.5000 0.7398 0.2602  plane waves:     308
 k-point ** :   0.5000 0.7347 0.2653  plane waves:     304
 k-point ** :   0.5000 0.7296 0.2704  plane waves:     300
 k-point ** :   0.5000 0.7245 0.2755  plane waves:     300
 k-point ** :   0.5000 0.7194 0.2806  plane waves:     300
 k-point ** :   0.5000 0.7143 0.2857  plane waves:     300
 k-point ** :   0.5000 0.7092 0.2908  plane waves:     300
 k-point ** :   0.5000 0.7041 0.2959  plane waves:     302
 k-point ** :   0.5000 0.6990 0.3010  plane waves:     302
 k-point ** :   0.5000 0.6939 0.3061  plane waves:     302
 k-point ** :   0.5000 0.6888 0.3112  plane waves:     304
 k-point ** :   0.5000 0.6837 0.3163  plane waves:     302
 k-point ** :   0.5000 0.6786 0.3214  plane waves:     302
 k-point ** :   0.5000 0.6735 0.3265  plane waves:     302
 k-point ** :   0.5000 0.6684 0.3316  plane waves:     296
 k-point ** :   0.5000 0.6633 0.3367  plane waves:     296
 k-point ** :   0.5000 0.6582 0.3418  plane waves:     296
 k-point ** :   0.5000 0.6531 0.3469  plane waves:     296
 k-point ** :   0.5000 0.6480 0.3520  plane waves:     296
 k-point ** :   0.5000 0.6429 0.3571  plane waves:     300
 k-point ** :   0.5000 0.6378 0.3622  plane waves:     300
 k-point ** :   0.5000 0.6327 0.3673  plane waves:     300
 k-point ** :   0.5000 0.6276 0.3724  plane waves:     300
 k-point ** :   0.5000 0.6224 0.3776  plane waves:     300
 k-point ** :   0.5000 0.6173 0.3827  plane waves:     300
 k-point ** :   0.5000 0.6122 0.3878  plane waves:     300
 k-point ** :   0.5000 0.6071 0.3929  plane waves:     300
 k-point ** :   0.5000 0.6020 0.3980  plane waves:     300
 k-point ** :   0.5000 0.5969 0.4031  plane waves:     300
 k-point ** :   0.5000 0.5918 0.4082  plane waves:     300
 k-point ** :   0.5000 0.5867 0.4133  plane waves:     300
 k-point ** :   0.5000 0.5816 0.4184  plane waves:     300
 k-point ** :   0.5000 0.5765 0.4235  plane waves:     300
 k-point ** :   0.5000 0.5714 0.4286  plane waves:     298
 k-point ** :   0.5000 0.5663 0.4337  plane waves:     298
 k-point ** :   0.5000 0.5612 0.4388  plane waves:     298
 k-point ** :   0.5000 0.5561 0.4439  plane waves:     298
 k-point ** :   0.5000 0.5510 0.4490  plane waves:     300
 k-point ** :   0.5000 0.5459 0.4541  plane waves:     298
 k-point ** :   0.5000 0.5408 0.4592  plane waves:     298
 k-point ** :   0.5000 0.5357 0.4643  plane waves:     304
 k-point ** :   0.5000 0.5306 0.4694  plane waves:     300
 k-point ** :   0.5000 0.5255 0.4745  plane waves:     302
 k-point ** :   0.5000 0.5204 0.4796  plane waves:     302
 k-point ** :   0.5000 0.5153 0.4847  plane waves:     302
 k-point ** :   0.5000 0.5102 0.4898  plane waves:     302
 k-point ** :   0.5000 0.5051 0.4949  plane waves:     302
 k-point ** :   0.5000 0.5000 0.5000  plane waves:     302
 k-point ** :   0.5000 0.5000 0.5000  plane waves:     302
 k-point ** :   0.4898 0.4898 0.4898  plane waves:     302
 k-point ** :   0.4796 0.4796 0.4796  plane waves:     302
 k-point ** :   0.4694 0.4694 0.4694  plane waves:     302
 k-point ** :   0.4592 0.4592 0.4592  plane waves:     302
 k-point ** :   0.4490 0.4490 0.4490  plane waves:     296
 k-point ** :   0.4388 0.4388 0.4388  plane waves:     296
 k-point ** :   0.4286 0.4286 0.4286  plane waves:     296
 k-point ** :   0.4184 0.4184 0.4184  plane waves:     296
[...]
 k-point ** :   0.2679 0.5357 0.2679  plane waves:     303
 k-point ** :   0.2755 0.5510 0.2755  plane waves:     303
 k-point ** :   0.2832 0.5663 0.2832  plane waves:     299
 k-point ** :   0.2908 0.5816 0.2908  plane waves:     293
 k-point ** :   0.2985 0.5969 0.2985  plane waves:     293
 k-point ** :   0.3061 0.6122 0.3061  plane waves:     293
 k-point ** :   0.3138 0.6276 0.3138  plane waves:     293
 k-point ** :   0.3214 0.6429 0.3214  plane waves:     293
 k-point ** :   0.3291 0.6582 0.3291  plane waves:     289
 k-point ** :   0.3367 0.6735 0.3367  plane waves:     292
 k-point ** :   0.3444 0.6888 0.3444  plane waves:     288
 k-point ** :   0.3520 0.7041 0.3520  plane waves:     296
 k-point ** :   0.3597 0.7194 0.3597  plane waves:     296
 k-point ** :   0.3673 0.7347 0.3673  plane waves:     296
 k-point ** :   0.3750 0.7500 0.3750  plane waves:     296

 maximum number of plane-waves:       314
 maximum index in each direction:
   IXMAX=    4   IYMAX=    4   IZMAX=    4
   IXMIN=   -5   IYMIN=   -5   IZMIN=   -5

 NGX is ok and might be reduce to  20
 NGY is ok and might be reduce to  20
 NGZ is ok and might be reduce to  20

 initial charge density was supplied:
 number of electron       3.0000000 magnetization
 keeping initial charge density in first step

 Maximum index for augmentation-charges        18173 (set IRDMAX)

 First call to EWALD:  gamma=   0.695
 Maximum number of real-space cells 3x 3x 3
 Maximum number of reciprocal cells 3x 3x 3

----------------------------------------- Iteration    1(   1)  ---------------------------------------

 eigenvalue-minimisations  : 14452
 total energy-change (2. order) :-0.3810367E+01  (-0.2792504E+02)
 number of electron       3.0000000 magnetization
 augmentation part        3.0000000 magnetization

 Free energy of the ion-electron system (eV)
  alpha Z        PSCENC =        -0.20224632
  Ewald energy   TEWEN  =       -73.35670894
  -1/2 Hartree   DENC   =        -0.10364839
  -exchange  EXHF       =         0.00000000
  -V(xc)+E(xc)   XCENC  =       -26.14384766
  PAW double counting   =        35.65463646       -3.71120343
  entropy T*S    EENTRO =        -0.00000000
  eigenvalues    EBANDS =        10.51449645
  atomic energy  EATOM  =        53.53815432
  free energy    TOTEN  =        -3.81036749 eV

  energy without entropy =       -3.81036749  energy(sigma->0) =       -3.81036749

[...]

----------------------------------------- Iteration    1(   4)  ---------------------------------------

 eigenvalue-minimisations  : 12604
 total energy-change (2. order) :-0.1029283E-05  (-0.1029079E-05)
 number of electron       3.0000000 magnetization
 augmentation part        3.0000000 magnetization

 Free energy of the ion-electron system (eV)
  alpha Z        PSCENC =        -0.20224632
  Ewald energy   TEWEN  =       -73.35670894
  -1/2 Hartree   DENC   =        -0.10364839
  -exchange  EXHF       =         0.00000000
  -V(xc)+E(xc)   XCENC  =       -26.14384766
  PAW double counting   =        35.65463646       -3.71120343
  entropy T*S    EENTRO =        -0.00000000
  eigenvalues    EBANDS =         9.71955232
  atomic energy  EATOM  =        53.53815432
  free energy    TOTEN  =        -4.60531162 eV

  energy without entropy =       -4.60531162  energy(sigma->0) =       -4.60531162

 average (electrostatic) potential at core
  the test charge radii are     1.0406
  (the norm of the test charge is              1.0000)
       1 -72.7039

 E-fermi :   7.6155     XC(G=0): -10.1731     alpha+bet :-14.7800

 k-point   1 :       0.0000    0.0000    0.0000
  band No.  band energies     occupation
      1      -3.1566      2.00000
      2      20.5186      0.00000
      3      20.5186      0.00000
      4      20.5186      0.00000
      5      21.9593      0.00000
      6      21.9593      0.00000
      7      21.9593      0.00000
      8      24.3520      0.00000
      9      27.2892      0.00000
     10      27.2892      0.00000
     11      30.1230      0.00000
     12      32.4754      0.00000
     13      32.4754      0.00000
     14      32.4754      0.00000
     15      41.0090      0.00000
     16      56.3112      0.00000
     17      56.8629      0.00000
     18      56.8630      0.00000
     19      56.8634      0.00000
     20      59.1829      0.00000

[...]

 k-point 250 :       0.3750    0.7500    0.3750
  band No.  band energies     occupation
      1       6.0591      2.00000
      2       6.5840      2.00000
      3       7.5242      2.00000
      4      14.4642      0.00000
      5      16.1046      0.00000
      6      23.5505      0.00000
      7      29.6471      0.00000
      8      30.0383      0.00000
      9      30.9942      0.00000
     10      35.7623      0.00000
     11      40.3732      0.00000
     12      41.5364      0.00000
     13      44.1564      0.00000
     14      46.1943      0.00000
     15      47.8476      0.00000
     16      48.3626      0.00000
     17      50.7281      0.00000
     18      51.9534      0.00000
     19      53.3470      0.00000
     20      54.4517      0.00000

 soft charge-density along one line, spin component           1
         0         1         2         3         4         5         6         7         8         9
x     0.0000    0.0000    0.0000    0.0000    0.0000    0.0000    0.0000    0.0000    0.0000    0.0000
x     0.0000    0.0000    0.0000    0.0000    0.0000    0.0000    0.0000    0.0000    0.0000    0.0000
x     0.0000    0.0000
y     0.0000    0.0000    0.0000    0.0000    0.0000    0.0000    0.0000    0.0000    0.0000    0.0000
y     0.0000    0.0000    0.0000    0.0000    0.0000    0.0000    0.0000    0.0000    0.0000    0.0000
y     0.0000    0.0000
z     0.0000    0.0000    0.0000    0.0000    0.0000    0.0000    0.0000    0.0000    0.0000    0.0000
z     0.0000    0.0000    0.0000    0.0000    0.0000    0.0000    0.0000    0.0000    0.0000    0.0000
z     0.0000    0.0000
 total charge-density along one line
x     3.0000    0.0000    0.0093    0.0000   -0.0278    0.0000    0.0016    0.0000    0.0001    0.0000
x    -0.0000    0.0000    0.0000   -0.0000   -0.0000   -0.0000    0.0000    0.0000   -0.0000   -0.0000
x    -0.0000   -0.0000    0.0000   -0.0000   -0.0000    0.0000    0.0000    0.0000   -0.0000    0.0000
x     0.0000    0.0000   -0.0000    0.0000    0.0000    0.0000    0.0000   -0.0000   -0.0000    0.0000
x     0.0000    0.0000
y     3.0000    0.0000    0.0093    0.0000   -0.0278   -0.0000    0.0016   -0.0000    0.0001   -0.0000
y    -0.0000    0.0000    0.0000    0.0000   -0.0000   -0.0000    0.0000   -0.0000   -0.0000   -0.0000
y    -0.0000    0.0000    0.0000    0.0000   -0.0000    0.0000    0.0000    0.0000   -0.0000    0.0000
y     0.0000    0.0000   -0.0000    0.0000    0.0000   -0.0000    0.0000   -0.0000   -0.0000   -0.0000
y     0.0000   -0.0000
z     3.0000    0.0000    0.0093    0.0000   -0.0278    0.0000    0.0016   -0.0000    0.0001    0.0000
z    -0.0000    0.0000    0.0000    0.0000   -0.0000   -0.0000    0.0000    0.0000   -0.0000    0.0000
z    -0.0000   -0.0000    0.0000   -0.0000   -0.0000    0.0000    0.0000   -0.0000   -0.0000   -0.0000
z     0.0000    0.0000   -0.0000   -0.0000    0.0000   -0.0000    0.0000   -0.0000   -0.0000    0.0000
z     0.0000   -0.0000

------------------------ aborting loop because EDIFF is reached ----------------------------------------

  FORCE on cell =-STRESS in cart. coord.  units (eV):
  Direction    XX          YY          ZZ          XY          YZ          ZX
  Alpha Z    -0.20225    -0.20225    -0.20225
  Ewald     -24.45224   -24.45224   -24.45224    -0.00000     0.00000     0.00000
  Hartree     0.03351     0.03351     0.03351     0.00000     0.00000     0.00000
  E(xc)      -8.54432    -8.54432    -8.54432     0.00000     0.00000     0.00000
  Local       0.34904     0.34904     0.34904    -0.00000    -0.00000    -0.00000
  n-local    18.66319    19.57771    18.30199    -0.29720    -0.29549    -0.35902
  augment    -1.05946    -1.05946    -1.05946     0.00000     0.00000     0.00000
  Kinetic     8.51624     9.61083    24.88719     4.61049     3.64370     6.14469
  Fock        0.00000     0.00000     0.00000     0.00000     0.00000     0.00000
  Total      -0.69001    -0.69001    -0.69001     0.00000     0.00000    -0.00000
  in kB     -66.56699   -66.56699   -66.56699     0.00000     0.00000    -0.00000

 VOLUME and BASIS-vectors are now :
  energy-cutoff  :      400.00
  volume of cell :       16.61
      direct lattice vectors                 reciprocal lattice vectors
     0.000000000  2.025000000  2.025000000    -0.246913580  0.246913580  0.246913580
     2.025000000  0.000000000  2.025000000     0.246913580 -0.246913580  0.246913580
     2.025000000  2.025000000  0.000000000     0.246913580  0.246913580 -0.246913580

  length of vectors
     2.863782464  2.863782464  2.863782464     0.427666866  0.427666866  0.427666866

 FORCES acting on ions
    electron-ion (+dipol)            ewald-force                    non-local-force                 convergence-correction
   -.993E-15 -.174E-15 -.449E-15   -.758E-16 -.122E-15 -.249E-16   0.662E-23 0.000E+00 0.662E-23   -.264E-18 -.227E-17 0.335E-17
   -.993E-15 -.174E-15 -.449E-15   -.758E-16 -.122E-15 -.249E-16   0.662E-23 0.000E+00 0.662E-23   -.264E-18 -.227E-17 0.335E-17

 POSITION                                       TOTAL-FORCE (eV/Angst)
      0.00000      0.00000      0.00000         0.000000      0.000000      0.000000
    total drift:                               -0.000000     -0.000000     -0.000000

  FREE ENERGIE OF THE ION-ELECTRON SYSTEM (eV)
  free  energy   TOTEN  =        -4.60531162 eV

  energy  without entropy=       -4.60531162  energy(sigma->0) =       -4.60531162

 reached required accuracy - stopping structural energy minimisation
 writing wavefunctions